<number of tasks>
50

<cycle time>
1000

<order strength>
0.599


<task times>
1 146
2 133
3 61
4 131
5 30
6 102
7 250
8 95
9 159
10 225
11 91
12 128
13 71
14 233
15 198
16 26
17 55
18 56
19 97
20 115
21 73
22 88
23 33
24 170
25 206
26 175
27 93
28 161
29 71
30 148
31 255
32 87
33 156
34 151
35 164
36 99
37 79
38 189
39 41
40 221
41 61
42 131
43 209
44 69
45 89
46 94
47 75
48 207
49 269
50 180

<precedence relations>
1,5
2,7
3,6
3,9
4,8
4,9
5,10
6,11
7,12
8,13
8,14
9,13
9,14
10,18
11,15
12,16
13,17
13,18
13,19
13,20
14,17
14,18
14,19
14,20
15,22
16,23
17,21
17,23
17,24
17,25
18,23
18,25
19,23
19,24
19,25
20,23
20,24
20,25
21,26
22,27
23,28
23,29
23,30
23,31
24,29
24,30
24,31
25,29
25,34
25,35
26,33
27,34
28,32
29,38
30,33
31,33
31,34
31,35
32,36
33,37
33,38
34,37
34,49
35,47
36,41
37,39
37,45
38,40
38,42
38,45
39,43
40,44
41,45
42,46
42,47
43,48
44,48
45,50
47,49

<end>
